(declare-const X String)
; ^([0-9a-fA-F]){8}$
(assert (not (str.in.re X (re.++ ((_ re.loop 8 8) (re.union (re.range "0" "9") (re.range "a" "f") (re.range "A" "F"))) (str.to.re "\x0a")))))
; sql.*badurl\x2Egrandstreetinteractive\x2Ecom
(assert (not (str.in.re X (re.++ (str.to.re "sql") (re.* re.allchar) (str.to.re "badurl.grandstreetinteractive.com\x0a")))))
; ^\s*
(assert (str.in.re X (re.++ (re.* (re.union (str.to.re " ") (str.to.re "\x09") (str.to.re "\x0a") (str.to.re "\x0c") (str.to.re "\x0d"))) (str.to.re "\x0a"))))
; ^((0[1-9])|(1[0-2]))\/((0[1-9])|(1[0-9])|(2[0-9])|(3[0-1]))\/(\d{4})$
(assert (str.in.re X (re.++ (re.union (re.++ (str.to.re "0") (re.range "1" "9")) (re.++ (str.to.re "1") (re.range "0" "2"))) (str.to.re "/") (re.union (re.++ (str.to.re "0") (re.range "1" "9")) (re.++ (str.to.re "1") (re.range "0" "9")) (re.++ (str.to.re "2") (re.range "0" "9")) (re.++ (str.to.re "3") (re.range "0" "1"))) (str.to.re "/") ((_ re.loop 4 4) (re.range "0" "9")) (str.to.re "\x0a"))))
; ^(([1-9]{1})|([0-1][1-2])|(0[1-9])|([1][0-2])):([0-5][0-9])(([aA])|([pP]))[mM]$
(assert (str.in.re X (re.++ (re.union ((_ re.loop 1 1) (re.range "1" "9")) (re.++ (re.range "0" "1") (re.range "1" "2")) (re.++ (str.to.re "0") (re.range "1" "9")) (re.++ (str.to.re "1") (re.range "0" "2"))) (str.to.re ":") (re.union (str.to.re "a") (str.to.re "A") (str.to.re "p") (str.to.re "P")) (re.union (str.to.re "m") (str.to.re "M")) (str.to.re "\x0a") (re.range "0" "5") (re.range "0" "9"))))
(check-sat)
